c File: flat50_3_0.col
c
c SOURCE: Joseph Culberson (joe@cs.ualberta.ca)
c DESCRIPTION: Quasi-random coloring problem
c              generated with flatness = 0
c                             probability = 0.139
c                             known coloring = 3
c                             random seed = 1772
c              Creation Date:  Tue Jun  9 12:17:30 1998
c Maximum degree = 8 Minimum degree = 1
c p edge 50 115
c cnf created by edge2cnf
p cnf 150 545
-1 -2 0
-1 -3 0
-2 -3 0
1 2 3 0
-4 -5 0
-4 -6 0
-5 -6 0
4 5 6 0
-7 -8 0
-7 -9 0
-8 -9 0
7 8 9 0
-10 -11 0
-10 -12 0
-11 -12 0
10 11 12 0
-13 -14 0
-13 -15 0
-14 -15 0
13 14 15 0
-16 -17 0
-16 -18 0
-17 -18 0
16 17 18 0
-19 -20 0
-19 -21 0
-20 -21 0
19 20 21 0
-22 -23 0
-22 -24 0
-23 -24 0
22 23 24 0
-25 -26 0
-25 -27 0
-26 -27 0
25 26 27 0
-28 -29 0
-28 -30 0
-29 -30 0
28 29 30 0
-31 -32 0
-31 -33 0
-32 -33 0
31 32 33 0
-34 -35 0
-34 -36 0
-35 -36 0
34 35 36 0
-37 -38 0
-37 -39 0
-38 -39 0
37 38 39 0
-40 -41 0
-40 -42 0
-41 -42 0
40 41 42 0
-43 -44 0
-43 -45 0
-44 -45 0
43 44 45 0
-46 -47 0
-46 -48 0
-47 -48 0
46 47 48 0
-49 -50 0
-49 -51 0
-50 -51 0
49 50 51 0
-52 -53 0
-52 -54 0
-53 -54 0
52 53 54 0
-55 -56 0
-55 -57 0
-56 -57 0
55 56 57 0
-58 -59 0
-58 -60 0
-59 -60 0
58 59 60 0
-61 -62 0
-61 -63 0
-62 -63 0
61 62 63 0
-64 -65 0
-64 -66 0
-65 -66 0
64 65 66 0
-67 -68 0
-67 -69 0
-68 -69 0
67 68 69 0
-70 -71 0
-70 -72 0
-71 -72 0
70 71 72 0
-73 -74 0
-73 -75 0
-74 -75 0
73 74 75 0
-76 -77 0
-76 -78 0
-77 -78 0
76 77 78 0
-79 -80 0
-79 -81 0
-80 -81 0
79 80 81 0
-82 -83 0
-82 -84 0
-83 -84 0
82 83 84 0
-85 -86 0
-85 -87 0
-86 -87 0
85 86 87 0
-88 -89 0
-88 -90 0
-89 -90 0
88 89 90 0
-91 -92 0
-91 -93 0
-92 -93 0
91 92 93 0
-94 -95 0
-94 -96 0
-95 -96 0
94 95 96 0
-97 -98 0
-97 -99 0
-98 -99 0
97 98 99 0
-100 -101 0
-100 -102 0
-101 -102 0
100 101 102 0
-103 -104 0
-103 -105 0
-104 -105 0
103 104 105 0
-106 -107 0
-106 -108 0
-107 -108 0
106 107 108 0
-109 -110 0
-109 -111 0
-110 -111 0
109 110 111 0
-112 -113 0
-112 -114 0
-113 -114 0
112 113 114 0
-115 -116 0
-115 -117 0
-116 -117 0
115 116 117 0
-118 -119 0
-118 -120 0
-119 -120 0
118 119 120 0
-121 -122 0
-121 -123 0
-122 -123 0
121 122 123 0
-124 -125 0
-124 -126 0
-125 -126 0
124 125 126 0
-127 -128 0
-127 -129 0
-128 -129 0
127 128 129 0
-130 -131 0
-130 -132 0
-131 -132 0
130 131 132 0
-133 -134 0
-133 -135 0
-134 -135 0
133 134 135 0
-136 -137 0
-136 -138 0
-137 -138 0
136 137 138 0
-139 -140 0
-139 -141 0
-140 -141 0
139 140 141 0
-142 -143 0
-142 -144 0
-143 -144 0
142 143 144 0
-145 -146 0
-145 -147 0
-146 -147 0
145 146 147 0
-148 -149 0
-148 -150 0
-149 -150 0
148 149 150 0
-52 -1 0
-53 -2 0
-54 -3 0
-58 -1 0
-59 -2 0
-60 -3 0
-61 -1 0
-62 -2 0
-63 -3 0
-100 -1 0
-101 -2 0
-102 -3 0
-121 -1 0
-122 -2 0
-123 -3 0
-148 -1 0
-149 -2 0
-150 -3 0
-52 -4 0
-53 -5 0
-54 -6 0
-73 -4 0
-74 -5 0
-75 -6 0
-88 -4 0
-89 -5 0
-90 -6 0
-127 -4 0
-128 -5 0
-129 -6 0
-55 -7 0
-56 -8 0
-57 -9 0
-85 -7 0
-86 -8 0
-87 -9 0
-91 -7 0
-92 -8 0
-93 -9 0
-97 -7 0
-98 -8 0
-99 -9 0
-124 -7 0
-125 -8 0
-126 -9 0
-127 -7 0
-128 -8 0
-129 -9 0
-58 -10 0
-59 -11 0
-60 -12 0
-67 -10 0
-68 -11 0
-69 -12 0
-97 -10 0
-98 -11 0
-99 -12 0
-136 -10 0
-137 -11 0
-138 -12 0
-139 -10 0
-140 -11 0
-141 -12 0
-148 -10 0
-149 -11 0
-150 -12 0
-61 -13 0
-62 -14 0
-63 -15 0
-91 -13 0
-92 -14 0
-93 -15 0
-97 -13 0
-98 -14 0
-99 -15 0
-109 -13 0
-110 -14 0
-111 -15 0
-115 -13 0
-116 -14 0
-117 -15 0
-139 -13 0
-140 -14 0
-141 -15 0
-67 -16 0
-68 -17 0
-69 -18 0
-82 -16 0
-83 -17 0
-84 -18 0
-133 -16 0
-134 -17 0
-135 -18 0
-148 -16 0
-149 -17 0
-150 -18 0
-61 -19 0
-62 -20 0
-63 -21 0
-79 -19 0
-80 -20 0
-81 -21 0
-82 -19 0
-83 -20 0
-84 -21 0
-118 -19 0
-119 -20 0
-120 -21 0
-124 -19 0
-125 -20 0
-126 -21 0
-145 -19 0
-146 -20 0
-147 -21 0
-109 -22 0
-110 -23 0
-111 -24 0
-121 -22 0
-122 -23 0
-123 -24 0
-139 -22 0
-140 -23 0
-141 -24 0
-103 -25 0
-104 -26 0
-105 -27 0
-118 -25 0
-119 -26 0
-120 -27 0
-148 -25 0
-149 -26 0
-150 -27 0
-70 -28 0
-71 -29 0
-72 -30 0
-91 -28 0
-92 -29 0
-93 -30 0
-145 -28 0
-146 -29 0
-147 -30 0
-55 -31 0
-56 -32 0
-57 -33 0
-118 -31 0
-119 -32 0
-120 -33 0
-133 -31 0
-134 -32 0
-135 -33 0
-142 -31 0
-143 -32 0
-144 -33 0
-76 -34 0
-77 -35 0
-78 -36 0
-124 -34 0
-125 -35 0
-126 -36 0
-136 -34 0
-137 -35 0
-138 -36 0
-142 -34 0
-143 -35 0
-144 -36 0
-67 -37 0
-68 -38 0
-69 -39 0
-79 -37 0
-80 -38 0
-81 -39 0
-85 -37 0
-86 -38 0
-87 -39 0
-133 -37 0
-134 -38 0
-135 -39 0
-67 -40 0
-68 -41 0
-69 -42 0
-73 -40 0
-74 -41 0
-75 -42 0
-109 -40 0
-110 -41 0
-111 -42 0
-118 -40 0
-119 -41 0
-120 -42 0
-76 -43 0
-77 -44 0
-78 -45 0
-79 -43 0
-80 -44 0
-81 -45 0
-94 -43 0
-95 -44 0
-96 -45 0
-100 -43 0
-101 -44 0
-102 -45 0
-127 -43 0
-128 -44 0
-129 -45 0
-139 -43 0
-140 -44 0
-141 -45 0
-142 -43 0
-143 -44 0
-144 -45 0
-55 -46 0
-56 -47 0
-57 -48 0
-70 -46 0
-71 -47 0
-72 -48 0
-73 -46 0
-74 -47 0
-75 -48 0
-112 -46 0
-113 -47 0
-114 -48 0
-130 -46 0
-131 -47 0
-132 -48 0
-55 -49 0
-56 -50 0
-57 -51 0
-76 -49 0
-77 -50 0
-78 -51 0
-124 -49 0
-125 -50 0
-126 -51 0
-112 -52 0
-113 -53 0
-114 -54 0
-118 -52 0
-119 -53 0
-120 -54 0
-139 -52 0
-140 -53 0
-141 -54 0
-127 -58 0
-128 -59 0
-129 -60 0
-145 -58 0
-146 -59 0
-147 -60 0
-139 -61 0
-140 -62 0
-141 -63 0
-142 -64 0
-143 -65 0
-144 -66 0
-103 -67 0
-104 -68 0
-105 -69 0
-106 -67 0
-107 -68 0
-108 -69 0
-133 -67 0
-134 -68 0
-135 -69 0
-145 -67 0
-146 -68 0
-147 -69 0
-130 -70 0
-131 -71 0
-132 -72 0
-139 -70 0
-140 -71 0
-141 -72 0
-145 -70 0
-146 -71 0
-147 -72 0
-106 -73 0
-107 -74 0
-108 -75 0
-133 -73 0
-134 -74 0
-135 -75 0
-136 -73 0
-137 -74 0
-138 -75 0
-106 -79 0
-107 -80 0
-108 -81 0
-112 -79 0
-113 -80 0
-114 -81 0
-115 -79 0
-116 -80 0
-117 -81 0
-136 -79 0
-137 -80 0
-138 -81 0
-148 -82 0
-149 -83 0
-150 -84 0
-133 -85 0
-134 -86 0
-135 -87 0
-115 -88 0
-116 -89 0
-117 -90 0
-124 -88 0
-125 -89 0
-126 -90 0
-145 -88 0
-146 -89 0
-147 -90 0
-106 -94 0
-107 -95 0
-108 -96 0
-112 -94 0
-113 -95 0
-114 -96 0
-118 -94 0
-119 -95 0
-120 -96 0
-133 -94 0
-134 -95 0
-135 -96 0
-112 -97 0
-113 -98 0
-114 -99 0
-115 -97 0
-116 -98 0
-117 -99 0
-130 -97 0
-131 -98 0
-132 -99 0
-148 -97 0
-149 -98 0
-150 -99 0
-109 -100 0
-110 -101 0
-111 -102 0
-130 -100 0
-131 -101 0
-132 -102 0
-142 -100 0
-143 -101 0
-144 -102 0
